58
23
47
78
39
8
86
90
34
29
26
66
62
63
19
70
94
69
76
11
64
65
85
77
79
31
97
84
10
27
14
72
48
82
30
74
83
87
92
2
67
45
3
17
1
95
35
36
43
93
59
46
52
101
99
21
56
100
98
51
80
50
15
42
20
18
40
60
9
38
44
55
96
6
89
12
53
54
5
75
33
73
4
41
91
16
61
88
57
28
49
24
13
32
37
71
22
7
68
25
81
58
